
  22   10
  10   10   10   10   10   10   10   10   10   10

   0   0   0   0   0   0   0   0   0   0   0   5 2 6 12 20 21 
   3   0   0   0  10   0   0   0   0   0   0   2 9 3 
   2   0   0   0  10   0   0   0   0   0   0   1 4 
   6   0   0  10   0   0   0   0   0   0   0   3 19 14 5 
   6   0   0  10   0   0   0   0   0   0   0   3 18 11 7 
   1   0   0   0   0   0   0   0  10   0   0   2 11 9 
  10   0   0  10   0   0   0   0   0   0   0   1 8 
   7   0   0   0   0   0  10   0   0   0   0   1 10 
   3   0   0   0   0   0   0   0   0   0  10   1 10 
   6   0   0   0  10   0   0   0   0   0   0   2 17 13 
   9   0   0   0   0   0   0   0   0  10   0   2 17 13 
   5   0   0   0   0  10   0   0   0   0   0   2 17 14 
   8   0  10   0   0   0   0   0   0   0   0   1 15 
   4   0  10   0   0   0   0   0   0   0   0   1 15 
   9   0  10   0   0   0   0   0   0   0   0   1 16 
   2   0  10   0   0   0   0   0   0   0   0   1 22
  10   0   0   0   0   0   0   0   0  10   0   1 22
   8  10   0   0   0   0   0   0   0   0   0   1 22
   3   0   0  10   0   0   0   0   0   0   0   1 22
   8   0   0   0   0   0   0  10   0   0   0   1 22
   6  10   0   0   0   0   0   0   0   0   0   1 22
   0   0   0   0   0   0   0   0   0   0   0   0 
